
Gurobi 11.0.1 (win64) logging started Wed Mar 27 01:02:00 2024

Set parameter LogFile to value "C:\Projetos\Job_Rotation_Algorithms\Outputs\GurobiLogs\gurobi_log-output-64_hes-c132-BorbaRittModel-NoExtraConstraint-2.log"
Gurobi Optimizer version 11.0.1 build v11.0.1rc0 (win64 - Windows 10.0 (19045.2))

CPU model: 11th Gen Intel(R) Core(TM) i7-1165G7 @ 2.80GHz, instruction set [SSE2|AVX|AVX2|AVX512]
Thread count: 4 physical cores, 8 logical processors, using up to 1 threads

WLS license 901039 - registered to Bitka Analytics
Optimize a model with 3312 rows, 605 columns and 10389 nonzeros
Model fingerprint: 0xf6d0e64c
Variable types: 2 continuous, 603 integer (603 binary)
Coefficient statistics:
  Matrix range     [1e+00, 2e+02]
  Objective range  [1e+00, 1e+00]
  Bounds range     [1e+00, 3e+02]
  RHS range        [1e+00, 3e+02]
Presolve removed 348 rows and 28 columns
Presolve time: 0.03s
Presolved: 2964 rows, 577 columns, 9310 nonzeros
Variable types: 0 continuous, 577 integer (576 binary)
Found heuristic solution: objective 43.0000000

Root relaxation: objective 5.600000e+01, 541 iterations, 0.01 seconds (0.02 work units)

    Nodes    |    Current Node    |     Objective Bounds      |     Work
 Expl Unexpl |  Obj  Depth IntInf | Incumbent    BestBd   Gap | It/Node Time

     0     0   56.00000    0   26   43.00000   56.00000  30.2%     -    0s
H    0     0                      54.0000000   56.00000  3.70%     -    0s
     0     0   56.00000    0   56   54.00000   56.00000  3.70%     -    0s
     0     0   56.00000    0   35   54.00000   56.00000  3.70%     -    0s
H    0     0                      55.0000000   56.00000  1.82%     -    0s
     0     0   56.00000    0   46   55.00000   56.00000  1.82%     -    0s
     0     0   56.00000    0   53   55.00000   56.00000  1.82%     -    0s
     0     0   56.00000    0   48   55.00000   56.00000  1.82%     -    0s
H    0     0                      56.0000000   56.00000  0.00%     -    0s
     0     0   56.00000    0   10   56.00000   56.00000  0.00%     -    0s

Cutting planes:
  Cover: 12
  Clique: 2
  MIR: 7
  StrongCG: 2
  Zero half: 25
  RLT: 15
  Relax-and-lift: 1
  BQP: 7

Explored 1 nodes (3513 simplex iterations) in 0.27 seconds (0.31 work units)
Thread count was 1 (of 8 available processors)

Solution count 4: 56 55 54 43 

Optimal solution found (tolerance 1.00e-03)
Best objective 5.600000000000e+01, best bound 5.600000000000e+01, gap 0.0000%
